(set-option :produce-proofs true)
(set-logic HORN)

(declare-fun |g_1032$unknown:30| ( Int Int Int Int Int Int Int Int Int Int Int Int ) Bool)
(declare-fun |g_without_checking_1152$unknown:41| ( Int Int Int Int Int Int Int Int Int Int Int ) Bool)
(declare-fun |g_1032$unknown:24| ( Int Int Int Int Int Int Int Int Int Int Int ) Bool)
(declare-fun |g_without_checking_1152$unknown:46| ( Int Int Int Int Int Int Int Int Int Int Int ) Bool)
(declare-fun |f_1035$unknown:11| ( Int Int Int Int Int Int Int Int Int ) Bool)
(declare-fun |succ_1030$unknown:52| ( Int Int Int Int Int ) Bool)
(declare-fun |g_1032$unknown:29| ( Int Int Int Int Int Int Int Int Int Int Int ) Bool)
(declare-fun |g_without_checking_1152$unknown:42| ( Int Int Int Int Int Int Int Int Int Int Int Int ) Bool)
(declare-fun |g_1032$unknown:25| ( Int Int Int Int Int Int Int Int Int Int Int Int ) Bool)
(declare-fun |fail$unknown:12| ( Int ) Bool)
(declare-fun |f_1035$unknown:10| ( Int Int Int Int Int Int Int Int ) Bool)
(declare-fun |g_without_checking_1152$unknown:47| ( Int Int Int Int Int Int Int Int Int Int Int Int ) Bool)

(assert
  (forall ( (A Int) (B Int) (C Int) (D Int) (E Int) (F Int) (G Int) (H Int) (I Int) (J Int) (K Int) (L Int) ) 
    (=>
      (and
        (|f_1035$unknown:10| B A E D I H G F)
        (|succ_1030$unknown:52| C B A E D)
        (and (not (= 0 L)) (= K 0) (= J 0) (= (not (= 0 L)) (= I 0)))
      )
      (|f_1035$unknown:11| C B A E D I H G F)
    )
  )
)
(assert
  (forall ( (A Int) (B Int) (C Int) (D Int) (E Int) (F Int) (G Int) (H Int) (I Int) (J Int) (K Int) (L Int) (M Int) (N Int) (v_14 Int) (v_15 Int) (v_16 Int) ) 
    (=>
      (and
        (|f_1035$unknown:10| A D C B H G F E)
        (and (= 0 K)
     (= J 0)
     (= I 0)
     (= N (+ L I))
     (= M (+ (- 1) H))
     (= L (* J H))
     (= (not (= 0 K)) (= H 0))
     (= v_14 G)
     (= v_15 F)
     (= v_16 E))
      )
      (|g_1032$unknown:29| A D C B G F E N v_14 v_15 v_16)
    )
  )
)
(assert
  (forall ( (A Int) (B Int) (C Int) (D Int) (E Int) (F Int) (G Int) (H Int) (I Int) (J Int) (K Int) (L Int) (M Int) (N Int) (O Int) (v_15 Int) (v_16 Int) (v_17 Int) ) 
    (=>
      (and
        (|f_1035$unknown:10| D C B A I H G F)
        (|g_1032$unknown:30| E D C B A H G F O v_15 v_16 v_17)
        (and (= v_15 H)
     (= v_16 G)
     (= v_17 F)
     (= 0 L)
     (= K 0)
     (= J 0)
     (= O (+ M J))
     (= N (+ (- 1) I))
     (= M (* K I))
     (= (not (= 0 L)) (= I 0)))
      )
      (|f_1035$unknown:11| E D C B A I H G F)
    )
  )
)
(assert
  (forall ( (A Int) (B Int) (C Int) (D Int) (E Int) (F Int) (G Int) (H Int) (I Int) (J Int) (K Int) (L Int) (M Int) (N Int) (O Int) (v_15 Int) (v_16 Int) (v_17 Int) (v_18 Int) (v_19 Int) (v_20 Int) ) 
    (=>
      (and
        (|f_1035$unknown:11| D C B A N M G F E)
        (|g_1032$unknown:24| C B A N G F E O v_15 v_16 v_17)
        (and (= v_15 G)
     (= v_16 F)
     (= v_17 E)
     (= 0 K)
     (= J 0)
     (= I 0)
     (= O (+ L I))
     (= M (+ (- 1) H))
     (= L (* J H))
     (= (not (= 0 K)) (= H 0))
     (= v_18 G)
     (= v_19 F)
     (= v_20 E))
      )
      (|g_1032$unknown:25| D C B A N G F E O v_18 v_19 v_20)
    )
  )
)
(assert
  (forall ( (A Int) (B Int) (C Int) (D Int) (E Int) (F Int) (G Int) (H Int) (I Int) (J Int) (K Int) (L Int) (M Int) (N Int) (v_14 Int) (v_15 Int) (v_16 Int) ) 
    (=>
      (and
        (|g_1032$unknown:24| C B A M F E D N v_14 v_15 v_16)
        (and (= v_14 F)
     (= v_15 E)
     (= v_16 D)
     (= 0 J)
     (= I 0)
     (= H 0)
     (= N (+ K H))
     (= L (+ (- 1) G))
     (= K (* I G))
     (= (not (= 0 J)) (= G 0)))
      )
      (|f_1035$unknown:10| C B A M L F E D)
    )
  )
)
(assert
  (forall ( (A Int) (B Int) (C Int) (D Int) (E Int) (F Int) (G Int) (H Int) (I Int) (J Int) (K Int) (L Int) (M Int) (N Int) (O Int) (P Int) (Q Int) (R Int) (S Int) (T Int) (U Int) (V Int) (W Int) (X Int) (Y Int) (Z Int) (A1 Int) (B1 Int) (C1 Int) (D1 Int) (E1 Int) (F1 Int) (G1 Int) (H1 Int) (I1 Int) ) 
    (=>
      (and
        (|g_1032$unknown:25| D C B A L K J I H G F E)
        (|g_without_checking_1152$unknown:41| C B A L K J I H G F E)
        (|g_1032$unknown:29| P O N M K J I H G F E)
        (let ((a!1 (= (not (= 0 I1)) (and (not (= 0 H1)) (not (= 0 B1))))))
  (and (= (not (= 0 H1)) (>= G1 0))
       (not (= 0 M))
       (not (= 0 I1))
       (= E1 (+ C1 D1))
       (= D1 (* (- 4) H))
       (= C1 2)
       (= A1 (+ Y Z))
       (= Z 0)
       (= Y (+ W X))
       (= X (* (- 4) H))
       (= W 2)
       (= V (+ T U))
       (= U 0)
       (= T (+ R S))
       (= S (* (- 4) N))
       (= R 2)
       (= Q 1)
       (= G1 (+ E1 F1))
       (= F1 0)
       (= (= 0 B1) (<= V A1))
       a!1))
      )
      (|g_without_checking_1152$unknown:42| D C B A L K J I H G F E)
    )
  )
)
(assert
  (forall ( (A Int) (B Int) (C Int) (D Int) (E Int) (F Int) (G Int) (H Int) (I Int) (J Int) (K Int) (L Int) (M Int) (N Int) (O Int) (P Int) (Q Int) ) 
    (=>
      (and
        (|g_1032$unknown:25| D C B A L K J I H G F E)
        (|g_without_checking_1152$unknown:41| C B A L K J I H G F E)
        (|g_1032$unknown:29| P O N M K J I H G F E)
        (and (= Q 1) (= 0 M))
      )
      (|g_without_checking_1152$unknown:42| D C B A L K J I H G F E)
    )
  )
)
(assert
  (forall ( (A Int) (B Int) (C Int) (D Int) (E Int) (F Int) (G Int) (H Int) (I Int) (J Int) (K Int) (L Int) (M Int) (N Int) (O Int) (P Int) (Q Int) (R Int) (S Int) (T Int) (U Int) (V Int) (W Int) (X Int) (Y Int) (Z Int) (A1 Int) (B1 Int) (C1 Int) (D1 Int) (E1 Int) (F1 Int) (G1 Int) (H1 Int) ) 
    (=>
      (and
        (|g_1032$unknown:29| O N M L J I H G F E D)
        (|g_without_checking_1152$unknown:41| C B A K J I H G F E D)
        (let ((a!1 (= (not (= 0 H1)) (and (not (= 0 G1)) (not (= 0 A1))))))
  (and (= (not (= 0 G1)) (>= F1 0))
       (not (= 0 L))
       (not (= 0 H1))
       (= D1 (+ B1 C1))
       (= C1 (* (- 4) G))
       (= B1 2)
       (= Z (+ X Y))
       (= Y 0)
       (= X (+ V W))
       (= W (* (- 4) G))
       (= V 2)
       (= U (+ S T))
       (= T 0)
       (= S (+ Q R))
       (= R (* (- 4) M))
       (= Q 2)
       (= P 1)
       (= F1 (+ D1 E1))
       (= E1 0)
       (= (= 0 A1) (<= U Z))
       a!1))
      )
      (|g_1032$unknown:24| C B A K J I H G F E D)
    )
  )
)
(assert
  (forall ( (A Int) (B Int) (C Int) (D Int) (E Int) (F Int) (G Int) (H Int) (I Int) (J Int) (K Int) (L Int) (M Int) (N Int) (O Int) (P Int) ) 
    (=>
      (and
        (|g_1032$unknown:29| O N M L J I H G F E D)
        (|g_without_checking_1152$unknown:41| C B A K J I H G F E D)
        (and (= P 1) (= 0 L))
      )
      (|g_1032$unknown:24| C B A K J I H G F E D)
    )
  )
)
(assert
  (forall ( (A Int) (B Int) (C Int) (D Int) (E Int) (F Int) (G Int) (H Int) (I Int) (J Int) (K Int) (L Int) (M Int) (N Int) (O Int) (P Int) (Q Int) (R Int) (S Int) (T Int) (U Int) (V Int) (W Int) (X Int) (Y Int) (Z Int) (A1 Int) (B1 Int) (C1 Int) (D1 Int) (E1 Int) (F1 Int) ) 
    (=>
      (and
        (|g_1032$unknown:29| L K J I H G F E D C B)
        (|g_without_checking_1152$unknown:47| N L K J I H G F E D C B)
        (let ((a!1 (= (not (= 0 F1)) (and (not (= 0 E1)) (not (= 0 Y))))))
  (and (= (not (= 0 E1)) (>= D1 0))
       (not (= 0 I))
       (not (= 0 F1))
       (= B1 (+ Z A1))
       (= A1 (* (- 4) E))
       (= Z 2)
       (= X (+ V W))
       (= W 0)
       (= V (+ T U))
       (= U (* (- 4) E))
       (= T 2)
       (= S (+ Q R))
       (= R 0)
       (= Q (+ O P))
       (= P (* (- 4) J))
       (= O 2)
       (= M 1)
       (= A N)
       (= D1 (+ B1 C1))
       (= C1 0)
       (= (= 0 Y) (<= S X))
       a!1))
      )
      (|g_1032$unknown:30| A L K J I H G F E D C B)
    )
  )
)
(assert
  (forall ( (A Int) (B Int) (C Int) (D Int) (E Int) (F Int) (G Int) (H Int) (I Int) (J Int) (K Int) (L Int) (M Int) (N Int) ) 
    (=>
      (and
        (|g_1032$unknown:29| L K J I H G F E D C B)
        (|g_without_checking_1152$unknown:47| N L K J I H G F E D C B)
        (and (= A N) (= M 1) (= 0 I))
      )
      (|g_1032$unknown:30| A L K J I H G F E D C B)
    )
  )
)
(assert
  (forall ( (A Int) (B Int) (C Int) (D Int) (E Int) (F Int) (G Int) (H Int) (I Int) (J Int) (K Int) (L Int) (M Int) (N Int) (O Int) (P Int) (Q Int) (R Int) (S Int) (T Int) (U Int) (V Int) (W Int) (X Int) (Y Int) (Z Int) (A1 Int) (B1 Int) (C1 Int) (D1 Int) ) 
    (=>
      (and
        (|g_1032$unknown:29| K J I H G F E D C B A)
        (let ((a!1 (= (not (= 0 D1)) (and (not (= 0 C1)) (not (= 0 W))))))
  (and (= (not (= 0 C1)) (>= B1 0))
       (not (= 0 H))
       (not (= 0 D1))
       (= Z (+ X Y))
       (= Y (* (- 4) D))
       (= X 2)
       (= V (+ T U))
       (= U 0)
       (= T (+ R S))
       (= S (* (- 4) D))
       (= R 2)
       (= Q (+ O P))
       (= P 0)
       (= O (+ M N))
       (= N (* (- 4) I))
       (= M 2)
       (= L 1)
       (= B1 (+ Z A1))
       (= A1 0)
       (= (= 0 W) (<= Q V))
       a!1))
      )
      (|g_without_checking_1152$unknown:46| K J I H G F E D C B A)
    )
  )
)
(assert
  (forall ( (A Int) (B Int) (C Int) (D Int) (E Int) (F Int) (G Int) (H Int) (I Int) (J Int) (K Int) (L Int) (M Int) (N Int) (O Int) (P Int) (Q Int) (R Int) (S Int) (T Int) (U Int) (V Int) (W Int) (X Int) (Y Int) (Z Int) (A1 Int) (B1 Int) (C1 Int) (D1 Int) ) 
    (=>
      (and
        (|g_1032$unknown:29| K J I H G F E D C B A)
        (let ((a!1 (= (not (= 0 C1)) (and (not (= 0 B1)) (not (= 0 V))))))
  (and (= (not (= 0 B1)) (>= A1 0))
       (not (= 0 H))
       (= 0 C1)
       (= Z 0)
       (= Y (+ W X))
       (= X (* (- 4) D))
       (= W 2)
       (= U (+ S T))
       (= T 0)
       (= S (+ Q R))
       (= R (* (- 4) D))
       (= Q 2)
       (= P (+ N O))
       (= O 0)
       (= N (+ L M))
       (= M (* (- 4) I))
       (= L 2)
       (= D1 1)
       (= A1 (+ Y Z))
       (= (= 0 V) (<= P U))
       a!1))
      )
      (|fail$unknown:12| D1)
    )
  )
)
(assert
  (forall ( (A Int) (B Int) (C Int) (D Int) (E Int) (F Int) (G Int) (H Int) (I Int) (J Int) (K Int) (L Int) ) 
    (=>
      (and
        (|g_1032$unknown:29| K J I H G F E D C B A)
        (and (= L 1) (= 0 H))
      )
      (|g_without_checking_1152$unknown:46| K J I H G F E D C B A)
    )
  )
)
(assert
  (forall ( (A Int) (B Int) (C Int) (D Int) (E Int) (F Int) (G Int) (H Int) (I Int) (J Int) (K Int) (L Int) (M Int) (N Int) (O Int) (v_15 Int) (v_16 Int) (v_17 Int) ) 
    (=>
      (and
        (|g_without_checking_1152$unknown:42| N O I B J E D C v_15 M L K)
        (|g_without_checking_1152$unknown:46| I H G F E D C B M L K)
        (|g_without_checking_1152$unknown:42| O I v_16 B J E D C v_17 M L K)
        (and (= v_15 B) (= v_16 I) (= v_17 B) (= A N) (= J 1))
      )
      (|g_without_checking_1152$unknown:47| A I H G F E D C B M L K)
    )
  )
)
(assert
  (forall ( (A Int) (B Int) (C Int) (D Int) (E Int) (F Int) (G Int) (H Int) (I Int) (J Int) (K Int) (L Int) (M Int) (v_13 Int) (v_14 Int) (v_15 Int) ) 
    (=>
      (and
        (|g_without_checking_1152$unknown:42| M H v_13 A I D C B v_14 L K J)
        (|g_without_checking_1152$unknown:46| H G F E D C B A L K J)
        (and (= v_13 H) (= v_14 A) (= I 1) (= v_15 A))
      )
      (|g_without_checking_1152$unknown:41| M H A I D C B v_15 L K J)
    )
  )
)
(assert
  (forall ( (A Int) (B Int) (C Int) (D Int) (E Int) (F Int) (G Int) (H Int) (I Int) (J Int) (K Int) (L Int) (v_12 Int) (v_13 Int) ) 
    (=>
      (and
        (|g_without_checking_1152$unknown:46| H G F E D C B A L K J)
        (and (= I 1) (= v_12 H) (= v_13 A))
      )
      (|g_without_checking_1152$unknown:41| H v_12 A I D C B v_13 L K J)
    )
  )
)
(assert
  (forall ( (A Int) (B Int) (C Int) (D Int) (E Int) ) 
    (=>
      (and
        (= A (+ 1 E))
      )
      (|succ_1030$unknown:52| A E D C B)
    )
  )
)
(assert
  (forall ( (A Int) (B Int) (C Int) (D Int) (E Int) (F Int) (G Int) (H Int) (I Int) (J Int) (K Int) (v_11 Int) (v_12 Int) (v_13 Int) ) 
    (=>
      (and
        (let ((a!1 (= (not (= 0 K)) (and (not (= 0 I)) (not (= 0 J))))))
  (and (= (not (= 0 J)) (>= B 0))
       (= (not (= 0 I)) (>= A 0))
       (not (= 0 K))
       (= G 0)
       (= F 0)
       (= E 0)
       (= D 0)
       (= C 0)
       (= H 0)
       a!1
       (= v_11 H)
       (= v_12 G)
       (= v_13 F)))
      )
      (|f_1035$unknown:10| B H G F A v_11 v_12 v_13)
    )
  )
)
(assert
  (forall ( (A Int) ) 
    (=>
      (and
        (|fail$unknown:12| A)
        true
      )
      false
    )
  )
)

(check-sat)
(get-proof)
